NAME : A-n15-k5
CAPACITY : 175
NODE_COORD_SECTION
1   368   342
2   184   76
3   238   394
4   171   96
5   66   187
6   246   263
7   478   289
8   452   498
9   259   170
10   448   127
11   122   483
12   257   356
13   392   307
14   295   271
15   244   457
DEMAND_SECTION
1   0
2   40
3   65
4   9
5   63
6   98
7   68
8   85
9   30
10   28
11   17
12   100
13   76
14   45
15   96
DEPOT_SECTION
    1
    -1
EOF